nK = 1715;
nT = 6;
nI = 14;
L = 35;
TT = 457;
np = 1;
nc = 3;
b = [36, 23, 51, 35, 31, 68, 20, 52, 31, 27, 39, 44, 49, 46];
d = [144, 108, 93, 105, 91, 112, 103, 136, 71, 148, 90, 144, 90, 147];
m = [1.8, 1.7, 1.8, 1, 1.3, 1.2, 1, 1.3, 1.8, 2, 1.9, 1.6, 1.1, 1.3];
pt = [0.31, 0.33, 0.34, 0.31, 0.26, 0.28];
st = [16.43, 19.14, 18.02, 12.4, 11.18, 13.44];
arc = {<1, 0, 1, 1, 0, 0, 0, [1, 1, 1, 1, 1, 1]>, <2, 1, 2, 1, 0, 0, 0, [1, 1, 1, 1, 1, 1]>, <3, 2, 3, 1, 0, 0, 0, [1, 1, 1, 1, 1, 1]>, <4, 3, 4, 1, 0, 0, 0, [1, 1, 1, 1, 1, 1]>, <5, 4, 5, 1, 0, 0, 0, [1, 1, 1, 1, 1, 1]>, <6, 5, 6, 1, 0, 0, 0, [1, 1, 1, 1, 1, 1]>, <7, 6, 7, 1, 0, 0, 0, [1, 1, 1, 1, 1, 1]>, <8, 7, 8, 1, 0, 0, 0, [1, 1, 1, 1, 1, 1]>, <9, 8, 9, 1, 0, 0, 0, [1, 1, 1, 1, 1, 1]>, <10, 9, 10, 1, 0, 0, 0, [1, 1, 1, 1, 1, 1]>, <11, 10, 11, 1, 0, 0, 0, [1, 1, 1, 1, 1, 1]>, <12, 11, 12, 1, 0, 0, 0, [1, 1, 1, 1, 1, 1]>, <13, 12, 13, 1, 0, 0, 0, [1, 1, 1, 1, 1, 1]>, <14, 13, 14, 1, 0, 0, 0, [1, 1, 1, 1, 1, 1]>, <15, 14, 15, 1, 0, 0, 0, [1, 1, 1, 1, 1, 1]>, <16, 15, 16, 1, 0, 0, 0, [1, 1, 1, 1, 1, 1]>, <17, 16, 17, 1, 0, 0, 0, [1, 1, 1, 1, 1, 1]>, <18, 17, 18, 1, 0, 0, 0, [1, 1, 1, 1, 1, 1]>, <19, 18, 19, 1, 0, 0, 0, [1, 1, 1, 1, 1, 1]>, <20, 19, 20, 1, 0, 0, 0, [1, 1, 1, 1, 1, 1]>, <21, 20, 21, 1, 0, 0, 0, [1, 1, 1, 1, 1, 1]>, <22, 21, 22, 1, 0, 0, 0, [1, 1, 1, 1, 1, 1]>, <23, 22, 23, 1, 0, 0, 0, [1, 1, 1, 1, 1, 1]>, <24, 23, 24, 1, 0, 0, 0, [1, 1, 1, 1, 1, 1]>, <25, 24, 25, 1, 0, 0, 0, [1, 1, 1, 1, 1, 1]>, <26, 25, 26, 1, 0, 0, 0, [1, 1, 1, 1, 1, 1]>, <27, 26, 27, 1, 0, 0, 0, [1, 1, 1, 1, 1, 1]>, <28, 27, 28, 1, 0, 0, 0, [1, 1, 1, 1, 1, 1]>, <29, 28, 29, 1, 0, 0, 0, [1, 1, 1, 1, 1, 1]>, <30, 29, 30, 1, 0, 0, 0, [1, 1, 1, 1, 1, 1]>, <31, 30, 31, 1, 0, 0, 0, [1, 1, 1, 1, 1, 1]>, <32, 31, 32, 1, 0, 0, 0, [1, 1, 1, 1, 1, 1]>, <33, 32, 33, 1, 0, 0, 0, [1, 1, 1, 1, 1, 1]>, <34, 33, 34, 1, 0, 0, 0, [1, 1, 1, 1, 1, 1]>, <35, 34, 35, 1, 0, 0, 0, [1, 1, 1, 1, 1, 1]>, <36, 0, 19, 19, 1, 0, 0, [1, 1, 1, 0, 0, 1]>, <37, 1, 20, 19, 1, 0, 0, [1, 1, 1, 0, 0, 1]>, <38, 2, 21, 19, 1, 0, 0, [1, 1, 1, 0, 0, 1]>, <39, 3, 22, 19, 1, 0, 0, [1, 1, 1, 0, 0, 1]>, <40, 4, 23, 19, 1, 0, 0, [1, 1, 1, 0, 0, 1]>, <41, 5, 24, 19, 1, 0, 0, [1, 1, 1, 0, 0, 1]>, <42, 6, 25, 19, 1, 0, 0, [1, 1, 1, 0, 0, 1]>, <43, 7, 26, 19, 1, 0, 0, [1, 1, 1, 0, 0, 1]>, <44, 8, 27, 19, 1, 0, 0, [1, 1, 1, 0, 0, 1]>, <45, 9, 28, 19, 1, 0, 0, [1, 1, 1, 0, 0, 1]>, <46, 10, 29, 19, 1, 0, 0, [1, 1, 1, 0, 0, 1]>, <47, 11, 30, 19, 1, 0, 0, [1, 1, 1, 0, 0, 1]>, <48, 12, 31, 19, 1, 0, 0, [1, 1, 1, 0, 0, 1]>, <49, 13, 32, 19, 1, 0, 0, [1, 1, 1, 0, 0, 1]>, <50, 14, 33, 19, 1, 0, 0, [1, 1, 1, 0, 0, 1]>, <51, 15, 34, 19, 1, 0, 0, [1, 1, 1, 0, 0, 1]>, <52, 16, 35, 19, 1, 0, 0, [1, 1, 1, 0, 0, 1]>, <53, 0, 22, 22, 2, 1, 0, [1, 1, 1, 1, 0, 0]>, <54, 1, 23, 22, 2, 1, 0, [1, 1, 1, 1, 0, 0]>, <55, 2, 24, 22, 2, 1, 0, [1, 1, 1, 1, 0, 0]>, <56, 3, 25, 22, 2, 1, 0, [1, 1, 1, 1, 0, 0]>, <57, 4, 26, 22, 2, 1, 0, [1, 1, 1, 1, 0, 0]>, <58, 5, 27, 22, 2, 1, 0, [1, 1, 1, 1, 0, 0]>, <59, 6, 28, 22, 2, 1, 0, [1, 1, 1, 1, 0, 0]>, <60, 7, 29, 22, 2, 1, 0, [1, 1, 1, 1, 0, 0]>, <61, 8, 30, 22, 2, 1, 0, [1, 1, 1, 1, 0, 0]>, <62, 9, 31, 22, 2, 1, 0, [1, 1, 1, 1, 0, 0]>, <63, 10, 32, 22, 2, 1, 0, [1, 1, 1, 1, 0, 0]>, <64, 11, 33, 22, 2, 1, 0, [1, 1, 1, 1, 0, 0]>, <65, 12, 34, 22, 2, 1, 0, [1, 1, 1, 1, 0, 0]>, <66, 13, 35, 22, 2, 1, 0, [1, 1, 1, 1, 0, 0]>, <67, 0, 21, 21, 3, 0, 1, [0, 1, 1, 1, 1, 0]>, <68, 1, 22, 21, 3, 0, 1, [0, 1, 1, 1, 1, 0]>, <69, 2, 23, 21, 3, 0, 1, [0, 1, 1, 1, 1, 0]>, <70, 3, 24, 21, 3, 0, 1, [0, 1, 1, 1, 1, 0]>, <71, 4, 25, 21, 3, 0, 1, [0, 1, 1, 1, 1, 0]>, <72, 5, 26, 21, 3, 0, 1, [0, 1, 1, 1, 1, 0]>, <73, 6, 27, 21, 3, 0, 1, [0, 1, 1, 1, 1, 0]>, <74, 7, 28, 21, 3, 0, 1, [0, 1, 1, 1, 1, 0]>, <75, 8, 29, 21, 3, 0, 1, [0, 1, 1, 1, 1, 0]>, <76, 9, 30, 21, 3, 0, 1, [0, 1, 1, 1, 1, 0]>, <77, 10, 31, 21, 3, 0, 1, [0, 1, 1, 1, 1, 0]>, <78, 11, 32, 21, 3, 0, 1, [0, 1, 1, 1, 1, 0]>, <79, 12, 33, 21, 3, 0, 1, [0, 1, 1, 1, 1, 0]>, <80, 13, 34, 21, 3, 0, 1, [0, 1, 1, 1, 1, 0]>, <81, 14, 35, 21, 3, 0, 1, [0, 1, 1, 1, 1, 0]>, <82, 0, 22, 22, 4, 0, 0, [1, 1, 1, 0, 0, 1]>, <83, 1, 23, 22, 4, 0, 0, [1, 1, 1, 0, 0, 1]>, <84, 2, 24, 22, 4, 0, 0, [1, 1, 1, 0, 0, 1]>, <85, 3, 25, 22, 4, 0, 0, [1, 1, 1, 0, 0, 1]>, <86, 4, 26, 22, 4, 0, 0, [1, 1, 1, 0, 0, 1]>, <87, 5, 27, 22, 4, 0, 0, [1, 1, 1, 0, 0, 1]>, <88, 6, 28, 22, 4, 0, 0, [1, 1, 1, 0, 0, 1]>, <89, 7, 29, 22, 4, 0, 0, [1, 1, 1, 0, 0, 1]>, <90, 8, 30, 22, 4, 0, 0, [1, 1, 1, 0, 0, 1]>, <91, 9, 31, 22, 4, 0, 0, [1, 1, 1, 0, 0, 1]>, <92, 10, 32, 22, 4, 0, 0, [1, 1, 1, 0, 0, 1]>, <93, 11, 33, 22, 4, 0, 0, [1, 1, 1, 0, 0, 1]>, <94, 12, 34, 22, 4, 0, 0, [1, 1, 1, 0, 0, 1]>, <95, 13, 35, 22, 4, 0, 0, [1, 1, 1, 0, 0, 1]>, <96, 0, 22, 22, 5, 0, 0, [0, 1, 1, 1, 1, 0]>, <97, 1, 23, 22, 5, 0, 0, [0, 1, 1, 1, 1, 0]>, <98, 2, 24, 22, 5, 0, 0, [0, 1, 1, 1, 1, 0]>, <99, 3, 25, 22, 5, 0, 0, [0, 1, 1, 1, 1, 0]>, <100, 4, 26, 22, 5, 0, 0, [0, 1, 1, 1, 1, 0]>, <101, 5, 27, 22, 5, 0, 0, [0, 1, 1, 1, 1, 0]>, <102, 6, 28, 22, 5, 0, 0, [0, 1, 1, 1, 1, 0]>, <103, 7, 29, 22, 5, 0, 0, [0, 1, 1, 1, 1, 0]>, <104, 8, 30, 22, 5, 0, 0, [0, 1, 1, 1, 1, 0]>, <105, 9, 31, 22, 5, 0, 0, [0, 1, 1, 1, 1, 0]>, <106, 10, 32, 22, 5, 0, 0, [0, 1, 1, 1, 1, 0]>, <107, 11, 33, 22, 5, 0, 0, [0, 1, 1, 1, 1, 0]>, <108, 12, 34, 22, 5, 0, 0, [0, 1, 1, 1, 1, 0]>, <109, 13, 35, 22, 5, 0, 0, [0, 1, 1, 1, 1, 0]>, <110, 0, 22, 22, 6, 1, 0, [0, 1, 1, 1, 1, 0]>, <111, 1, 23, 22, 6, 1, 0, [0, 1, 1, 1, 1, 0]>, <112, 2, 24, 22, 6, 1, 0, [0, 1, 1, 1, 1, 0]>, <113, 3, 25, 22, 6, 1, 0, [0, 1, 1, 1, 1, 0]>, <114, 4, 26, 22, 6, 1, 0, [0, 1, 1, 1, 1, 0]>, <115, 5, 27, 22, 6, 1, 0, [0, 1, 1, 1, 1, 0]>, <116, 6, 28, 22, 6, 1, 0, [0, 1, 1, 1, 1, 0]>, <117, 7, 29, 22, 6, 1, 0, [0, 1, 1, 1, 1, 0]>, <118, 8, 30, 22, 6, 1, 0, [0, 1, 1, 1, 1, 0]>, <119, 9, 31, 22, 6, 1, 0, [0, 1, 1, 1, 1, 0]>, <120, 10, 32, 22, 6, 1, 0, [0, 1, 1, 1, 1, 0]>, <121, 11, 33, 22, 6, 1, 0, [0, 1, 1, 1, 1, 0]>, <122, 12, 34, 22, 6, 1, 0, [0, 1, 1, 1, 1, 0]>, <123, 13, 35, 22, 6, 1, 0, [0, 1, 1, 1, 1, 0]>, <124, 0, 18, 18, 7, 0, 0, [1, 1, 0, 0, 1, 1]>, <125, 1, 19, 18, 7, 0, 0, [1, 1, 0, 0, 1, 1]>, <126, 2, 20, 18, 7, 0, 0, [1, 1, 0, 0, 1, 1]>, <127, 3, 21, 18, 7, 0, 0, [1, 1, 0, 0, 1, 1]>, <128, 4, 22, 18, 7, 0, 0, [1, 1, 0, 0, 1, 1]>, <129, 5, 23, 18, 7, 0, 0, [1, 1, 0, 0, 1, 1]>, <130, 6, 24, 18, 7, 0, 0, [1, 1, 0, 0, 1, 1]>, <131, 8, 26, 18, 7, 0, 0, [1, 1, 0, 0, 1, 1]>, <132, 9, 27, 18, 7, 0, 0, [1, 1, 0, 0, 1, 1]>, <133, 10, 28, 18, 7, 0, 0, [1, 1, 0, 0, 1, 1]>, <134, 11, 29, 18, 7, 0, 0, [1, 1, 0, 0, 1, 1]>, <135, 12, 30, 18, 7, 0, 0, [1, 1, 0, 0, 1, 1]>, <136, 13, 31, 18, 7, 0, 0, [1, 1, 0, 0, 1, 1]>, <137, 14, 32, 18, 7, 0, 0, [1, 1, 0, 0, 1, 1]>, <138, 15, 33, 18, 7, 0, 0, [1, 1, 0, 0, 1, 1]>, <139, 16, 34, 18, 7, 0, 0, [1, 1, 0, 0, 1, 1]>, <140, 17, 35, 18, 7, 0, 0, [1, 1, 0, 0, 1, 1]>, <141, 0, 18, 18, 8, 0, 0, [1, 1, 1, 0, 0, 1]>, <142, 1, 19, 18, 8, 0, 0, [1, 1, 1, 0, 0, 1]>, <143, 2, 20, 18, 8, 0, 0, [1, 1, 1, 0, 0, 1]>, <144, 3, 21, 18, 8, 0, 0, [1, 1, 1, 0, 0, 1]>, <145, 4, 22, 18, 8, 0, 0, [1, 1, 1, 0, 0, 1]>, <146, 5, 23, 18, 8, 0, 0, [1, 1, 1, 0, 0, 1]>, <147, 6, 24, 18, 8, 0, 0, [1, 1, 1, 0, 0, 1]>, <148, 8, 26, 18, 8, 0, 0, [1, 1, 1, 0, 0, 1]>, <149, 9, 27, 18, 8, 0, 0, [1, 1, 1, 0, 0, 1]>, <150, 10, 28, 18, 8, 0, 0, [1, 1, 1, 0, 0, 1]>, <151, 11, 29, 18, 8, 0, 0, [1, 1, 1, 0, 0, 1]>, <152, 12, 30, 18, 8, 0, 0, [1, 1, 1, 0, 0, 1]>, <153, 13, 31, 18, 8, 0, 0, [1, 1, 1, 0, 0, 1]>, <154, 14, 32, 18, 8, 0, 0, [1, 1, 1, 0, 0, 1]>, <155, 15, 33, 18, 8, 0, 0, [1, 1, 1, 0, 0, 1]>, <156, 16, 34, 18, 8, 0, 0, [1, 1, 1, 0, 0, 1]>, <157, 17, 35, 18, 8, 0, 0, [1, 1, 1, 0, 0, 1]>, <158, 0, 17, 17, 9, 0, 1, [0, 1, 1, 1, 1, 0]>, <159, 1, 18, 17, 9, 0, 1, [0, 1, 1, 1, 1, 0]>, <160, 2, 19, 17, 9, 0, 1, [0, 1, 1, 1, 1, 0]>, <161, 3, 20, 17, 9, 0, 1, [0, 1, 1, 1, 1, 0]>, <162, 4, 21, 17, 9, 0, 1, [0, 1, 1, 1, 1, 0]>, <163, 5, 22, 17, 9, 0, 1, [0, 1, 1, 1, 1, 0]>, <164, 6, 23, 17, 9, 0, 1, [0, 1, 1, 1, 1, 0]>, <165, 9, 26, 17, 9, 0, 1, [0, 1, 1, 1, 1, 0]>, <166, 10, 27, 17, 9, 0, 1, [0, 1, 1, 1, 1, 0]>, <167, 11, 28, 17, 9, 0, 1, [0, 1, 1, 1, 1, 0]>, <168, 12, 29, 17, 9, 0, 1, [0, 1, 1, 1, 1, 0]>, <169, 13, 30, 17, 9, 0, 1, [0, 1, 1, 1, 1, 0]>, <170, 14, 31, 17, 9, 0, 1, [0, 1, 1, 1, 1, 0]>, <171, 15, 32, 17, 9, 0, 1, [0, 1, 1, 1, 1, 0]>, <172, 16, 33, 17, 9, 0, 1, [0, 1, 1, 1, 1, 0]>, <173, 17, 34, 17, 9, 0, 1, [0, 1, 1, 1, 1, 0]>, <174, 18, 35, 17, 9, 0, 1, [0, 1, 1, 1, 1, 0]>, <175, 0, 17, 17, 10, 0, 0, [1, 0, 0, 1, 1, 1]>, <176, 1, 18, 17, 10, 0, 0, [1, 0, 0, 1, 1, 1]>, <177, 2, 19, 17, 10, 0, 0, [1, 0, 0, 1, 1, 1]>, <178, 3, 20, 17, 10, 0, 0, [1, 0, 0, 1, 1, 1]>, <179, 4, 21, 17, 10, 0, 0, [1, 0, 0, 1, 1, 1]>, <180, 5, 22, 17, 10, 0, 0, [1, 0, 0, 1, 1, 1]>, <181, 6, 23, 17, 10, 0, 0, [1, 0, 0, 1, 1, 1]>, <182, 9, 26, 17, 10, 0, 0, [1, 0, 0, 1, 1, 1]>, <183, 10, 27, 17, 10, 0, 0, [1, 0, 0, 1, 1, 1]>, <184, 11, 28, 17, 10, 0, 0, [1, 0, 0, 1, 1, 1]>, <185, 12, 29, 17, 10, 0, 0, [1, 0, 0, 1, 1, 1]>, <186, 13, 30, 17, 10, 0, 0, [1, 0, 0, 1, 1, 1]>, <187, 14, 31, 17, 10, 0, 0, [1, 0, 0, 1, 1, 1]>, <188, 15, 32, 17, 10, 0, 0, [1, 0, 0, 1, 1, 1]>, <189, 16, 33, 17, 10, 0, 0, [1, 0, 0, 1, 1, 1]>, <190, 17, 34, 17, 10, 0, 0, [1, 0, 0, 1, 1, 1]>, <191, 18, 35, 17, 10, 0, 0, [1, 0, 0, 1, 1, 1]>, <192, 0, 21, 21, 11, 0, 0, [1, 1, 1, 1, 0, 0]>, <193, 1, 22, 21, 11, 0, 0, [1, 1, 1, 1, 0, 0]>, <194, 2, 23, 21, 11, 0, 0, [1, 1, 1, 1, 0, 0]>, <195, 3, 24, 21, 11, 0, 0, [1, 1, 1, 1, 0, 0]>, <196, 4, 25, 21, 11, 0, 0, [1, 1, 1, 1, 0, 0]>, <197, 5, 26, 21, 11, 0, 0, [1, 1, 1, 1, 0, 0]>, <198, 6, 27, 21, 11, 0, 0, [1, 1, 1, 1, 0, 0]>, <199, 7, 28, 21, 11, 0, 0, [1, 1, 1, 1, 0, 0]>, <200, 8, 29, 21, 11, 0, 0, [1, 1, 1, 1, 0, 0]>, <201, 9, 30, 21, 11, 0, 0, [1, 1, 1, 1, 0, 0]>, <202, 10, 31, 21, 11, 0, 0, [1, 1, 1, 1, 0, 0]>, <203, 11, 32, 21, 11, 0, 0, [1, 1, 1, 1, 0, 0]>, <204, 12, 33, 21, 11, 0, 0, [1, 1, 1, 1, 0, 0]>, <205, 13, 34, 21, 11, 0, 0, [1, 1, 1, 1, 0, 0]>, <206, 14, 35, 21, 11, 0, 0, [1, 1, 1, 1, 0, 0]>, <207, 0, 19, 19, 12, 0, 1, [0, 1, 1, 1, 1, 0]>, <208, 1, 20, 19, 12, 0, 1, [0, 1, 1, 1, 1, 0]>, <209, 2, 21, 19, 12, 0, 1, [0, 1, 1, 1, 1, 0]>, <210, 3, 22, 19, 12, 0, 1, [0, 1, 1, 1, 1, 0]>, <211, 4, 23, 19, 12, 0, 1, [0, 1, 1, 1, 1, 0]>, <212, 5, 24, 19, 12, 0, 1, [0, 1, 1, 1, 1, 0]>, <213, 6, 25, 19, 12, 0, 1, [0, 1, 1, 1, 1, 0]>, <214, 7, 26, 19, 12, 0, 1, [0, 1, 1, 1, 1, 0]>, <215, 8, 27, 19, 12, 0, 1, [0, 1, 1, 1, 1, 0]>, <216, 9, 28, 19, 12, 0, 1, [0, 1, 1, 1, 1, 0]>, <217, 10, 29, 19, 12, 0, 1, [0, 1, 1, 1, 1, 0]>, <218, 11, 30, 19, 12, 0, 1, [0, 1, 1, 1, 1, 0]>, <219, 12, 31, 19, 12, 0, 1, [0, 1, 1, 1, 1, 0]>, <220, 13, 32, 19, 12, 0, 1, [0, 1, 1, 1, 1, 0]>, <221, 14, 33, 19, 12, 0, 1, [0, 1, 1, 1, 1, 0]>, <222, 15, 34, 19, 12, 0, 1, [0, 1, 1, 1, 1, 0]>, <223, 16, 35, 19, 12, 0, 1, [0, 1, 1, 1, 1, 0]>, <224, 0, 18, 18, 13, 0, 0, [1, 1, 1, 1, 0, 0]>, <225, 1, 19, 18, 13, 0, 0, [1, 1, 1, 1, 0, 0]>, <226, 2, 20, 18, 13, 0, 0, [1, 1, 1, 1, 0, 0]>, <227, 3, 21, 18, 13, 0, 0, [1, 1, 1, 1, 0, 0]>, <228, 4, 22, 18, 13, 0, 0, [1, 1, 1, 1, 0, 0]>, <229, 5, 23, 18, 13, 0, 0, [1, 1, 1, 1, 0, 0]>, <230, 6, 24, 18, 13, 0, 0, [1, 1, 1, 1, 0, 0]>, <231, 8, 26, 18, 13, 0, 0, [1, 1, 1, 1, 0, 0]>, <232, 9, 27, 18, 13, 0, 0, [1, 1, 1, 1, 0, 0]>, <233, 10, 28, 18, 13, 0, 0, [1, 1, 1, 1, 0, 0]>, <234, 11, 29, 18, 13, 0, 0, [1, 1, 1, 1, 0, 0]>, <235, 12, 30, 18, 13, 0, 0, [1, 1, 1, 1, 0, 0]>, <236, 13, 31, 18, 13, 0, 0, [1, 1, 1, 1, 0, 0]>, <237, 14, 32, 18, 13, 0, 0, [1, 1, 1, 1, 0, 0]>, <238, 15, 33, 18, 13, 0, 0, [1, 1, 1, 1, 0, 0]>, <239, 16, 34, 18, 13, 0, 0, [1, 1, 1, 1, 0, 0]>, <240, 17, 35, 18, 13, 0, 0, [1, 1, 1, 1, 0, 0]>, <241, 0, 20, 20, 14, 0, 0, [1, 0, 0, 1, 1, 1]>, <242, 1, 21, 20, 14, 0, 0, [1, 0, 0, 1, 1, 1]>, <243, 2, 22, 20, 14, 0, 0, [1, 0, 0, 1, 1, 1]>, <244, 3, 23, 20, 14, 0, 0, [1, 0, 0, 1, 1, 1]>, <245, 4, 24, 20, 14, 0, 0, [1, 0, 0, 1, 1, 1]>, <246, 5, 25, 20, 14, 0, 0, [1, 0, 0, 1, 1, 1]>, <247, 6, 26, 20, 14, 0, 0, [1, 0, 0, 1, 1, 1]>, <248, 7, 27, 20, 14, 0, 0, [1, 0, 0, 1, 1, 1]>, <249, 8, 28, 20, 14, 0, 0, [1, 0, 0, 1, 1, 1]>, <250, 9, 29, 20, 14, 0, 0, [1, 0, 0, 1, 1, 1]>, <251, 10, 30, 20, 14, 0, 0, [1, 0, 0, 1, 1, 1]>, <252, 11, 31, 20, 14, 0, 0, [1, 0, 0, 1, 1, 1]>, <253, 12, 32, 20, 14, 0, 0, [1, 0, 0, 1, 1, 1]>, <254, 13, 33, 20, 14, 0, 0, [1, 0, 0, 1, 1, 1]>, <255, 14, 34, 20, 14, 0, 0, [1, 0, 0, 1, 1, 1]>, <256, 15, 35, 20, 14, 0, 0, [1, 0, 0, 1, 1, 1]>};
